p edge 86 369
e 1 7
e 1 19
e 1 27
e 1 37
e 1 51
e 1 54
e 1 63
e 1 77
e 1 82
e 1 84
e 2 7
e 2 13
e 2 18
e 2 27
e 2 37
e 2 50
e 2 57
e 2 71
e 2 80
e 3 22
e 3 40
e 3 46
e 3 49
e 3 57
e 3 68
e 4 23
e 4 40
e 4 46
e 4 59
e 4 61
e 4 64
e 4 73
e 4 78
e 4 82
e 5 14
e 5 32
e 5 33
e 5 43
e 5 46
e 5 48
e 5 49
e 5 54
e 5 60
e 5 69
e 5 74
e 6 16
e 6 29
e 6 40
e 6 44
e 6 79
e 7 18
e 7 25
e 7 35
e 7 40
e 7 71
e 8 20
e 8 27
e 8 37
e 8 48
e 8 52
e 8 73
e 8 76
e 8 81
e 8 85
e 9 24
e 9 31
e 9 35
e 9 39
e 9 41
e 9 50
e 9 59
e 9 67
e 9 81
e 9 83
e 10 16
e 10 21
e 10 44
e 10 51
e 10 53
e 10 67
e 10 75
e 10 76
e 10 79
e 10 85
e 11 23
e 11 36
e 11 38
e 11 46
e 11 57
e 11 71
e 11 73
e 12 14
e 12 17
e 12 26
e 12 38
e 12 48
e 12 50
e 12 65
e 12 77
e 13 15
e 13 29
e 13 34
e 13 47
e 13 51
e 13 52
e 13 54
e 13 77
e 14 21
e 15 17
e 15 33
e 15 36
e 15 38
e 15 39
e 15 42
e 15 66
e 15 70
e 15 73
e 15 81
e 15 83
e 16 18
e 16 48
e 16 66
e 16 68
e 16 78
e 17 19
e 17 39
e 17 42
e 17 53
e 17 70
e 17 77
e 18 19
e 18 35
e 18 36
e 18 37
e 18 44
e 18 45
e 18 63
e 18 66
e 18 69
e 19 33
e 19 40
e 19 42
e 19 53
e 19 64
e 19 76
e 19 78
e 20 34
e 20 47
e 20 67
e 20 69
e 20 80
e 20 82
e 21 40
e 21 48
e 21 50
e 21 54
e 22 32
e 22 34
e 22 36
e 22 40
e 22 50
e 22 53
e 22 56
e 22 69
e 22 75
e 22 76
e 23 27
e 23 30
e 23 34
e 23 37
e 23 38
e 23 45
e 23 60
e 23 65
e 23 73
e 23 78
e 23 80
e 24 28
e 24 33
e 24 56
e 24 57
e 24 59
e 24 70
e 24 74
e 24 76
e 25 39
e 25 40
e 25 46
e 25 54
e 25 55
e 25 76
e 25 81
e 25 82
e 25 84
e 26 35
e 26 37
e 26 42
e 26 76
e 26 77
e 26 84
e 26 85
e 27 50
e 27 60
e 27 65
e 28 58
e 28 65
e 28 77
e 28 81
e 29 42
e 29 45
e 29 47
e 29 55
e 29 62
e 29 73
e 29 74
e 29 77
e 30 45
e 30 56
e 30 79
e 30 80
e 31 45
e 31 51
e 31 56
e 31 59
e 31 79
e 32 53
e 32 57
e 32 79
e 33 41
e 33 52
e 33 71
e 33 79
e 34 40
e 34 50
e 34 52
e 34 53
e 34 62
e 34 63
e 34 65
e 34 71
e 34 84
e 34 86
e 35 47
e 35 48
e 35 52
e 35 58
e 35 83
e 36 46
e 36 54
e 36 55
e 36 58
e 36 60
e 36 83
e 37 41
e 37 55
e 37 58
e 37 86
e 38 39
e 38 50
e 38 67
e 38 85
e 39 45
e 39 47
e 39 48
e 39 57
e 39 58
e 39 67
e 39 79
e 40 62
e 40 70
e 41 42
e 41 44
e 41 48
e 41 72
e 41 84
e 42 44
e 42 57
e 42 61
e 42 69
e 43 50
e 43 62
e 43 63
e 43 71
e 43 76
e 44 64
e 44 67
e 44 68
e 45 48
e 45 49
e 45 70
e 45 71
e 46 52
e 46 53
e 46 74
e 46 86
e 47 60
e 47 66
e 47 68
e 47 69
e 47 73
e 47 77
e 48 57
e 48 59
e 48 72
e 48 78
e 49 55
e 49 69
e 49 71
e 49 78
e 49 79
e 49 84
e 50 51
e 50 67
e 50 86
e 51 55
e 51 56
e 51 66
e 51 67
e 51 69
e 51 81
e 52 59
e 52 67
e 52 71
e 52 80
e 52 81
e 54 66
e 54 79
e 54 86
e 55 65
e 55 68
e 55 79
e 56 74
e 57 77
e 57 85
e 58 72
e 58 82
e 58 86
e 59 71
e 60 86
e 61 77
e 61 84
e 62 64
e 62 70
e 62 74
e 62 76
e 62 77
e 62 84
e 62 85
e 62 86
e 64 75
e 64 86
e 65 77
e 66 72
e 66 74
e 67 73
e 67 77
e 67 85
e 69 76
e 69 81
e 69 84
e 70 72
e 71 83
e 74 81
e 75 82
e 76 80
e 76 84
e 77 82
e 79 85
e 82 85
